outputs/uuf50-0102/26_n40_n23.proof
40 -38 -26 23 0
-7 11 -3 -18 0
38 -26 -24 18 27 0
10 -4 -3 -26 0
-8 -24 40 -26 0
38 -26 -24 40 23 0
-26 38 40 -18 23 24 0
-27 38 -26 46 -14 18 24 0
-8 -46 -26 -9 0
-31 2 40 15 -13 0
2 -27 38 -26 40 -8 31 0
-27 38 -26 40 18 23 -8 24 0
-29 38 -26 40 18 23 -8 24 0
0
