outputs/uuf50-0102/26_n40_n23.res
%RESA32 50 218

219 20 166 210 3 -24 -11 23 3
220 24 211 219 4 49 -11 -18 23 4
221 18 7 220 4 49 -47 -11 23 4
222 11 22 221 4 49 -47 23 7 4
223 -49 196 222 4 40 -47 23 7 4
224 -7 158 223 5 -26 40 -47 23 -38 5
225 47 76 224 4 40 -38 -26 23 4
226 31 179 125 4 -7 -22 11 -18 4
227 22 31 226 4 -7 11 -3 -18 4
228 29 206 92 4 27 36 38 31 4
229 -31 21 228 4 -39 27 36 38 4
230 -36 34 229 4 27 -39 -37 38 4
231 39 164 230 5 -37 38 -24 46 27 5
232 37 9 231 5 38 -24 46 18 27 5
233 -46 113 232 5 38 -26 -24 18 27 5
234 49 66 70 4 47 -4 -3 -25 4
235 -47 109 234 4 10 -4 -3 -25 4
236 25 218 235 4 10 -4 -3 -26 4
237 2 108 165 4 -8 9 44 -10 4
238 -9 100 237 3 -8 44 -10 3
239 10 236 238 5 -26 44 -8 -4 -3 5
240 -44 95 239 4 -8 -4 -3 -26 4
241 4 115 240 4 -8 40 -3 -26 4
242 3 53 241 4 -8 -24 40 -26 4
243 -49 54 123 4 8 -13 -36 -3 4
244 3 51 243 5 8 -14 -13 50 -36 5
245 36 136 244 6 8 9 12 -14 -13 50 6
246 -50 197 245 7 8 9 12 -14 19 -13 -2 7
247 -9 213 246 7 8 12 15 -14 19 -13 -2 7
248 2 162 247 7 8 -21 12 15 -14 19 -13 7
249 21 64 248 8 -28 -27 8 12 15 -14 19 -13 8
250 -12 140 249 8 -28 -27 8 15 48 -14 19 -13 8
251 -19 5 250 8 -28 -27 38 8 15 48 -14 -13 8
252 28 102 251 9 -27 38 8 15 48 -14 -13 18 -42 9
253 -15 15 252 9 -27 38 8 48 -14 -13 18 -42 -33 9
254 42 163 253 9 -27 38 8 48 -14 -13 18 -39 -33 9
255 13 215 254 9 -27 38 8 48 18 -14 23 -39 -33 9
256 14 41 255 8 -27 38 8 48 18 23 -39 -33 8
257 27 233 256 9 38 -26 8 -24 48 18 23 -39 -33 9
258 -48 77 257 8 38 -26 8 -24 18 23 -39 -33 8
259 -18 180 258 8 38 -26 8 -24 11 23 -39 -33 8
260 39 57 259 8 38 -26 8 -24 11 23 -33 31 8
261 -31 29 260 8 38 -26 8 40 -24 11 23 -33 8
262 33 68 261 7 38 -26 8 40 -24 11 23 7
263 -8 242 262 6 38 -26 -24 40 11 23 6
264 -11 166 263 6 38 -26 -24 40 20 23 6
265 -20 210 264 5 38 -26 -24 40 23 5
266 6 46 98 4 -32 3 -4 46 4
267 4 151 266 5 -32 3 46 23 27 5
268 32 209 267 5 3 46 47 23 27 5
269 -46 113 268 5 3 -26 47 23 27 5
270 -3 200 269 6 -37 -26 47 23 24 27 6
271 -47 196 270 7 -26 40 27 -49 23 24 -37 7
272 -27 107 271 7 -26 40 -18 -49 23 24 -37 7
273 49 211 272 6 -26 40 -18 23 24 -37 6
274 37 82 273 6 38 -26 40 -18 23 24 6
275 -22 42 112 4 48 33 -34 41 4
276 34 214 275 5 33 41 47 48 -15 5
277 -47 4 276 6 33 41 -50 48 -15 -10 6
278 -33 15 277 6 41 -50 48 -15 -42 -10 6
279 -41 26 278 6 -50 48 -15 -42 -10 24 6
280 42 14 279 6 -19 -50 48 -15 -10 24 6
281 10 145 280 7 -32 -27 -19 -50 48 -15 24 7
282 15 5 281 7 -32 -27 38 -19 -50 48 24 7
283 32 168 282 7 -27 38 -19 -50 48 -16 24 7
284 19 94 283 7 -27 38 -50 48 -16 -43 24 7
285 16 99 284 7 3 -27 38 -50 48 -43 24 7
286 50 51 285 7 3 -27 38 48 -14 -43 24 7
287 -3 200 286 7 -27 38 48 -14 -43 24 -37 7
288 -48 130 287 8 -27 38 -26 46 -14 -43 24 -37 8
289 37 9 288 8 -27 38 -26 46 -14 18 -43 24 8
290 43 27 289 7 -27 38 -26 46 -14 18 24 7
291 25 218 208 4 -8 10 -11 -26 4
292 -10 100 291 4 -8 -11 -26 -9 4
293 11 133 292 4 -8 -46 -26 -9 4
294 -48 124 140 4 40 -12 36 15 4
295 12 61 294 4 40 36 30 15 4
296 -30 104 295 5 -31 2 36 40 15 5
297 -36 187 296 5 -31 2 40 15 -13 5
298 4 161 236 5 -26 40 10 16 -3 5
299 3 99 298 5 38 -26 40 10 16 5
300 -16 191 299 6 32 38 -26 40 10 45 6
301 -32 145 300 6 -27 38 -26 40 10 45 6
302 -10 108 301 7 2 -27 38 -26 40 44 45 7
303 -45 128 302 7 2 -27 38 -26 40 44 31 7
304 -44 90 303 7 2 -27 38 -26 40 -8 31 7
305 -44 12 108 4 9 2 11 -10 4
306 10 145 305 5 -32 2 -27 9 11 5
307 -11 172 306 6 -32 2 -27 38 9 -16 6
308 32 168 307 6 2 -27 38 9 -16 24 6
309 16 110 308 7 -31 2 -27 38 9 -46 24 7
310 31 304 309 9 2 -27 38 -26 40 9 -46 -8 24 9
311 -2 165 310 8 -27 38 -26 40 9 -46 -8 24 8
312 -9 293 311 7 -27 38 -26 40 -46 -8 24 7
313 46 290 312 8 -27 38 -26 40 -14 18 -8 24 8
314 14 41 313 8 -27 38 -26 40 18 23 -8 24 8
315 15 213 71 3 48 -2 -9 3
316 9 165 315 3 48 -8 -2 3
317 -48 130 316 4 -8 -26 46 -2 4
318 2 11 317 4 -8 -31 -26 46 4
319 31 92 318 5 -29 -26 46 -8 27 5
320 -46 113 319 4 -8 27 -29 -26 4
321 -27 314 320 8 -29 38 -26 40 18 23 -8 24 8
